p tw 160 32801 2 
1 82 
1 83 
1 85 
1 87 
1 89 
1 91 
1 93 
1 96 
1 97 
1 99 
1 101 
1 103 
1 105 
1 107 
1 109 
1 112 
1 113 
1 115 
1 117 
1 119 
1 121 
1 123 
1 125 
1 127 
1 130 
1 132 
1 133 
1 136 
1 138 
1 140 
1 141 
1 143 
1 145 
1 147 
1 150 
1 151 
1 153 
1 156 
1 157 
1 159 
2 81 
2 84 
2 86 
2 88 
2 90 
2 92 
2 94 
2 95 
2 98 
2 100 
2 102 
2 104 
2 106 
2 108 
2 110 
2 111 
2 114 
2 116 
2 118 
2 120 
2 122 
2 124 
2 126 
2 128 
2 129 
2 131 
2 134 
2 135 
2 137 
2 139 
2 142 
2 144 
2 146 
2 148 
2 149 
2 152 
2 154 
2 155 
2 158 
2 160 
3 4 
3 82 
3 83 
3 86 
3 88 
3 89 
3 92 
3 93 
3 96 
3 98 
3 100 
3 102 
3 104 
3 106 
3 107 
3 110 
3 112 
3 114 
3 116 
3 117 
3 119 
3 122 
3 124 
3 125 
3 128 
3 130 
3 132 
3 134 
3 136 
3 138 
3 140 
3 141 
3 144 
3 146 
3 148 
3 150 
3 152 
3 154 
3 156 
3 157 
3 159 
4 81 
4 84 
4 85 
4 87 
4 90 
4 91 
4 94 
4 95 
4 97 
4 99 
4 101 
4 103 
4 105 
4 108 
4 109 
4 111 
4 113 
4 115 
4 118 
4 120 
4 121 
4 123 
4 126 
4 127 
4 129 
4 131 
4 133 
4 135 
4 137 
4 139 
4 142 
4 143 
4 145 
4 147 
4 149 
4 151 
4 153 
4 155 
4 158 
4 160 
5 6 
5 82 
5 83 
5 86 
5 88 
5 90 
5 91 
5 93 
5 95 
5 98 
5 99 
5 101 
5 104 
5 105 
5 107 
5 109 
5 111 
5 114 
5 115 
5 117 
5 120 
5 121 
5 124 
5 126 
5 128 
5 129 
5 131 
5 134 
5 136 
5 137 
5 140 
5 141 
5 144 
5 146 
5 147 
5 150 
5 151 
5 153 
5 156 
5 158 
5 160 
6 81 
6 84 
6 85 
6 87 
6 89 
6 92 
6 94 
6 96 
6 97 
6 100 
6 102 
6 103 
6 106 
6 108 
6 110 
6 112 
6 113 
6 116 
6 118 
6 119 
6 122 
6 123 
6 125 
6 127 
6 130 
6 132 
6 133 
6 135 
6 138 
6 139 
6 142 
6 143 
6 145 
6 148 
6 149 
6 152 
6 154 
6 155 
6 157 
6 159 
7 8 
7 82 
7 84 
7 85 
7 87 
7 90 
7 92 
7 94 
7 96 
7 97 
7 99 
7 101 
7 104 
7 105 
7 107 
7 109 
7 112 
7 114 
7 116 
7 117 
7 120 
7 122 
7 123 
7 125 
7 128 
7 129 
7 131 
7 134 
7 136 
7 137 
7 140 
7 142 
7 144 
7 145 
7 147 
7 149 
7 152 
7 154 
7 155 
7 157 
7 159 
8 81 
8 83 
8 86 
8 88 
8 89 
8 91 
8 93 
8 95 
8 98 
8 100 
8 102 
8 103 
8 106 
8 108 
8 110 
8 111 
8 113 
8 115 
8 118 
8 119 
8 121 
8 124 
8 126 
8 127 
8 130 
8 132 
8 133 
8 135 
8 138 
8 139 
8 141 
8 143 
8 146 
8 148 
8 150 
8 151 
8 153 
8 156 
8 158 
8 160 
9 10 
9 81 
9 84 
9 86 
9 88 
9 90 
9 91 
9 94 
9 96 
9 97 
9 99 
9 101 
9 104 
9 106 
9 108 
9 110 
9 112 
9 113 
9 115 
9 117 
9 119 
9 121 
9 124 
9 125 
9 128 
9 130 
9 132 
9 134 
9 136 
9 137 
9 139 
9 141 
9 143 
9 146 
9 147 
9 149 
9 152 
9 153 
9 155 
9 157 
9 160 
10 82 
10 83 
10 85 
10 87 
10 89 
10 92 
10 93 
10 95 
10 98 
10 100 
10 102 
10 103 
10 105 
10 107 
10 109 
10 111 
10 114 
10 116 
10 118 
10 120 
10 122 
10 123 
10 126 
10 127 
10 129 
10 131 
10 133 
10 135 
10 138 
10 140 
10 142 
10 144 
10 145 
10 148 
10 150 
10 151 
10 154 
10 156 
10 158 
10 159 
11 12 
11 81 
11 84 
11 86 
11 87 
11 89 
11 91 
11 93 
11 96 
11 98 
11 100 
11 101 
11 104 
11 106 
11 107 
11 110 
11 112 
11 114 
11 115 
11 118 
11 120 
11 122 
11 124 
11 125 
11 128 
11 130 
11 131 
11 133 
11 135 
11 137 
11 140 
11 142 
11 143 
11 145 
11 147 
11 149 
11 151 
11 153 
11 156 
11 158 
11 159 
12 82 
12 83 
12 85 
12 88 
12 90 
12 92 
12 94 
12 95 
12 97 
12 99 
12 102 
12 103 
12 105 
12 108 
12 109 
12 111 
12 113 
12 116 
12 117 
12 119 
12 121 
12 123 
12 126 
12 127 
12 129 
12 132 
12 134 
12 136 
12 138 
12 139 
12 141 
12 144 
12 146 
12 148 
12 150 
12 152 
12 154 
12 155 
12 157 
12 160 
13 14 
13 82 
13 83 
13 85 
13 87 
13 90 
13 91 
13 93 
13 95 
13 97 
13 100 
13 101 
13 104 
13 106 
13 108 
13 110 
13 111 
13 114 
13 115 
13 117 
13 120 
13 122 
13 124 
13 126 
13 127 
13 130 
13 132 
13 133 
13 136 
13 137 
13 139 
13 142 
13 144 
13 145 
13 148 
13 150 
13 152 
13 153 
13 155 
13 157 
13 159 
14 81 
14 84 
14 86 
14 88 
14 89 
14 92 
14 94 
14 96 
14 98 
14 99 
14 102 
14 103 
14 105 
14 107 
14 109 
14 112 
14 113 
14 116 
14 118 
14 119 
14 121 
14 123 
14 125 
14 128 
14 129 
14 131 
14 134 
14 135 
14 138 
14 140 
14 141 
14 143 
14 146 
14 147 
14 149 
14 151 
14 154 
14 156 
14 158 
14 160 
15 16 
15 81 
15 83 
15 85 
15 88 
15 90 
15 92 
15 93 
15 95 
15 97 
15 100 
15 101 
15 103 
15 106 
15 107 
15 110 
15 112 
15 114 
15 116 
15 117 
15 119 
15 121 
15 123 
15 126 
15 128 
15 130 
15 132 
15 134 
15 135 
15 137 
15 140 
15 142 
15 143 
15 145 
15 147 
15 150 
15 151 
15 154 
15 155 
15 158 
15 160 
16 82 
16 84 
16 86 
16 87 
16 89 
16 91 
16 94 
16 96 
16 98 
16 99 
16 102 
16 104 
16 105 
16 108 
16 109 
16 111 
16 113 
16 115 
16 118 
16 120 
16 122 
16 124 
16 125 
16 127 
16 129 
16 131 
16 133 
16 136 
16 138 
16 139 
16 141 
16 144 
16 146 
16 148 
16 149 
16 152 
16 153 
16 156 
16 157 
16 159 
17 18 
17 82 
17 84 
17 86 
17 88 
17 90 
17 91 
17 94 
17 96 
17 97 
17 100 
17 102 
17 103 
17 105 
17 108 
17 109 
17 112 
17 114 
17 116 
17 118 
17 120 
17 122 
17 124 
17 126 
17 127 
17 130 
17 132 
17 134 
17 136 
17 138 
17 140 
17 142 
17 143 
17 145 
17 147 
17 150 
17 152 
17 153 
17 156 
17 158 
17 160 
18 81 
18 83 
18 85 
18 87 
18 89 
18 92 
18 93 
18 95 
18 98 
18 99 
18 101 
18 104 
18 106 
18 107 
18 110 
18 111 
18 113 
18 115 
18 117 
18 119 
18 121 
18 123 
18 125 
18 128 
18 129 
18 131 
18 133 
18 135 
18 137 
18 139 
18 141 
18 144 
18 146 
18 148 
18 149 
18 151 
18 154 
18 155 
18 157 
18 159 
19 20 
19 81 
19 83 
19 85 
19 88 
19 89 
19 92 
19 94 
19 95 
19 98 
19 100 
19 101 
19 104 
19 105 
19 108 
19 110 
19 111 
19 113 
19 115 
19 117 
19 119 
19 122 
19 123 
19 125 
19 127 
19 130 
19 131 
19 134 
19 136 
19 138 
19 140 
19 142 
19 144 
19 145 
19 147 
19 149 
19 152 
19 153 
19 156 
19 158 
19 160 
20 82 
20 84 
20 86 
20 87 
20 90 
20 91 
20 93 
20 96 
20 97 
20 99 
20 102 
20 103 
20 106 
20 107 
20 109 
20 112 
20 114 
20 116 
20 118 
20 120 
20 121 
20 124 
20 126 
20 128 
20 129 
20 132 
20 133 
20 135 
20 137 
20 139 
20 141 
20 143 
20 146 
20 148 
20 150 
20 151 
20 154 
20 155 
20 157 
20 159 
21 22 
21 82 
21 83 
21 86 
21 88 
21 90 
21 91 
21 94 
21 95 
21 97 
21 100 
21 101 
21 103 
21 105 
21 107 
21 110 
21 112 
21 113 
21 116 
21 118 
21 119 
21 122 
21 123 
21 125 
21 128 
21 129 
21 132 
21 133 
21 136 
21 137 
21 139 
21 142 
21 144 
21 146 
21 148 
21 149 
21 151 
21 153 
21 156 
21 158 
21 159 
22 81 
22 84 
22 85 
22 87 
22 89 
22 92 
22 93 
22 96 
22 98 
22 99 
22 102 
22 104 
22 106 
22 108 
22 109 
22 111 
22 114 
22 115 
22 117 
22 120 
22 121 
22 124 
22 126 
22 127 
22 130 
22 131 
22 134 
22 135 
22 138 
22 140 
22 141 
22 143 
22 145 
22 147 
22 150 
22 152 
22 154 
22 155 
22 157 
22 160 
23 24 
23 81 
23 84 
23 86 
23 88 
23 90 
23 92 
23 93 
23 96 
23 97 
23 99 
23 101 
23 104 
23 106 
23 107 
23 109 
23 111 
23 114 
23 116 
23 118 
23 119 
23 122 
23 123 
23 125 
23 127 
23 130 
23 131 
23 133 
23 136 
23 138 
23 139 
23 141 
23 144 
23 145 
23 148 
23 150 
23 151 
23 153 
23 155 
23 158 
23 160 
24 82 
24 83 
24 85 
24 87 
24 89 
24 91 
24 94 
24 95 
24 98 
24 100 
24 102 
24 103 
24 105 
24 108 
24 110 
24 112 
24 113 
24 115 
24 117 
24 120 
24 121 
24 124 
24 126 
24 128 
24 129 
24 132 
24 134 
24 135 
24 137 
24 140 
24 142 
24 143 
24 146 
24 147 
24 149 
24 152 
24 154 
24 156 
24 157 
24 159 
25 26 
25 82 
25 83 
25 86 
25 88 
25 89 
25 91 
25 94 
25 95 
25 97 
25 99 
25 102 
25 104 
25 106 
25 107 
25 109 
25 112 
25 113 
25 115 
25 117 
25 120 
25 122 
25 123 
25 125 
25 127 
25 130 
25 131 
25 133 
25 135 
25 137 
25 140 
25 142 
25 143 
25 146 
25 148 
25 150 
25 152 
25 154 
25 155 
25 158 
25 160 
26 81 
26 84 
26 85 
26 87 
26 90 
26 92 
26 93 
26 96 
26 98 
26 100 
26 101 
26 103 
26 105 
26 108 
26 110 
26 111 
26 114 
26 116 
26 118 
26 119 
26 121 
26 124 
26 126 
26 128 
26 129 
26 132 
26 134 
26 136 
26 138 
26 139 
26 141 
26 144 
26 145 
26 147 
26 149 
26 151 
26 153 
26 156 
26 157 
26 159 
27 28 
27 82 
27 83 
27 85 
27 88 
27 89 
27 91 
27 94 
27 96 
27 97 
27 100 
27 102 
27 104 
27 106 
27 108 
27 109 
27 111 
27 113 
27 116 
27 118 
27 119 
27 121 
27 124 
27 126 
27 128 
27 130 
27 131 
27 133 
27 136 
27 137 
27 140 
27 141 
27 144 
27 145 
27 147 
27 149 
27 151 
27 154 
27 155 
27 158 
27 159 
28 81 
28 84 
28 86 
28 87 
28 90 
28 92 
28 93 
28 95 
28 98 
28 99 
28 101 
28 103 
28 105 
28 107 
28 110 
28 112 
28 114 
28 115 
28 117 
28 120 
28 122 
28 123 
28 125 
28 127 
28 129 
28 132 
28 134 
28 135 
28 138 
28 139 
28 142 
28 143 
28 146 
28 148 
28 150 
28 152 
28 153 
28 156 
28 157 
28 160 
29 30 
29 81 
29 84 
29 86 
29 87 
29 89 
29 92 
29 94 
29 96 
29 97 
29 100 
29 102 
29 103 
29 106 
29 107 
29 110 
29 111 
29 113 
29 115 
29 117 
29 120 
29 122 
29 123 
29 126 
29 127 
29 129 
29 132 
29 134 
29 136 
29 137 
29 140 
29 141 
29 144 
29 146 
29 147 
29 150 
29 151 
29 153 
29 155 
29 158 
29 159 
30 82 
30 83 
30 85 
30 88 
30 90 
30 91 
30 93 
30 95 
30 98 
30 99 
30 101 
30 104 
30 105 
30 108 
30 109 
30 112 
30 114 
30 116 
30 118 
30 119 
30 121 
30 124 
30 125 
30 128 
30 130 
30 131 
30 133 
30 135 
30 138 
30 139 
30 142 
30 143 
30 145 
30 148 
30 149 
30 152 
30 154 
30 156 
30 157 
30 160 
31 32 
31 82 
31 84 
31 85 
31 87 
31 90 
31 92 
31 93 
31 95 
31 97 
31 100 
31 102 
31 104 
31 106 
31 107 
31 109 
31 112 
31 113 
31 115 
31 118 
31 119 
31 121 
31 124 
31 125 
31 127 
31 129 
31 132 
31 134 
31 135 
31 137 
31 140 
31 141 
31 144 
31 145 
31 148 
31 149 
31 152 
31 153 
31 156 
31 158 
31 160 
32 81 
32 83 
32 86 
32 88 
32 89 
32 91 
32 94 
32 96 
32 98 
32 99 
32 101 
32 103 
32 105 
32 108 
32 110 
32 111 
32 114 
32 116 
32 117 
32 120 
32 122 
32 123 
32 126 
32 128 
32 130 
32 131 
32 133 
32 136 
32 138 
32 139 
32 142 
32 143 
32 146 
32 147 
32 150 
32 151 
32 154 
32 155 
32 157 
32 159 
33 34 
33 82 
33 83 
33 86 
33 87 
33 89 
33 92 
33 94 
33 95 
33 97 
33 100 
33 102 
33 104 
33 105 
33 107 
33 110 
33 112 
33 114 
33 115 
33 118 
33 120 
33 121 
33 123 
33 126 
33 128 
33 130 
33 131 
33 134 
33 136 
33 138 
33 139 
33 141 
33 143 
33 145 
33 148 
33 149 
33 151 
33 153 
33 155 
33 157 
33 160 
34 81 
34 84 
34 85 
34 88 
34 90 
34 91 
34 93 
34 96 
34 98 
34 99 
34 101 
34 103 
34 106 
34 108 
34 109 
34 111 
34 113 
34 116 
34 117 
34 119 
34 122 
34 124 
34 125 
34 127 
34 129 
34 132 
34 133 
34 135 
34 137 
34 140 
34 142 
34 144 
34 146 
34 147 
34 150 
34 152 
34 154 
34 156 
34 158 
34 159 
35 36 
35 81 
35 83 
35 85 
35 88 
35 89 
35 92 
35 94 
35 96 
35 97 
35 99 
35 101 
35 104 
35 105 
35 107 
35 110 
35 111 
35 113 
35 116 
35 118 
35 120 
35 122 
35 124 
35 126 
35 128 
35 129 
35 132 
35 133 
35 135 
35 137 
35 140 
35 141 
35 143 
35 145 
35 148 
35 150 
35 152 
35 153 
35 156 
35 157 
35 160 
36 82 
36 84 
36 86 
36 87 
36 90 
36 91 
36 93 
36 95 
36 98 
36 100 
36 102 
36 103 
36 106 
36 108 
36 109 
36 112 
36 114 
36 115 
36 117 
36 119 
36 121 
36 123 
36 125 
36 127 
36 130 
36 131 
36 134 
36 136 
36 138 
36 139 
36 142 
36 144 
36 146 
36 147 
36 149 
36 151 
36 154 
36 155 
36 158 
36 159 
37 38 
37 81 
37 84 
37 85 
37 88 
37 89 
37 91 
37 93 
37 95 
37 97 
37 99 
37 102 
37 104 
37 105 
37 107 
37 110 
37 112 
37 114 
37 115 
37 118 
37 119 
37 122 
37 124 
37 126 
37 127 
37 129 
37 132 
37 133 
37 136 
37 138 
37 140 
37 142 
37 144 
37 146 
37 147 
37 149 
37 151 
37 154 
37 155 
37 157 
37 160 
38 82 
38 83 
38 86 
38 87 
38 90 
38 92 
38 94 
38 96 
38 98 
38 100 
38 101 
38 103 
38 106 
38 108 
38 109 
38 111 
38 113 
38 116 
38 117 
38 120 
38 121 
38 123 
38 125 
38 128 
38 130 
38 131 
38 134 
38 135 
38 137 
38 139 
38 141 
38 143 
38 145 
38 148 
38 150 
38 152 
38 153 
38 156 
38 158 
38 159 
39 40 
39 81 
39 83 
39 85 
39 88 
39 90 
39 92 
39 94 
39 96 
39 98 
39 100 
39 102 
39 104 
39 106 
39 107 
39 109 
39 112 
39 114 
39 115 
39 118 
39 119 
39 121 
39 123 
39 126 
39 127 
39 129 
39 131 
39 133 
39 136 
39 137 
39 139 
39 142 
39 143 
39 146 
39 147 
39 150 
39 152 
39 153 
39 156 
39 157 
39 159 
40 82 
40 84 
40 86 
40 87 
40 89 
40 91 
40 93 
40 95 
40 97 
40 99 
40 101 
40 103 
40 105 
40 108 
40 110 
40 111 
40 113 
40 116 
40 117 
40 120 
40 122 
40 124 
40 125 
40 128 
40 130 
40 132 
40 134 
40 135 
40 138 
40 140 
40 141 
40 144 
40 145 
40 148 
40 149 
40 151 
40 154 
40 155 
40 158 
40 160 
41 42 
41 82 
41 84 
41 85 
41 88 
41 90 
41 92 
41 93 
41 96 
41 98 
41 100 
41 102 
41 103 
41 105 
41 107 
41 110 
41 111 
41 113 
41 116 
41 117 
41 120 
41 121 
41 124 
41 125 
41 127 
41 130 
41 131 
41 133 
41 136 
41 137 
41 140 
41 142 
41 143 
41 146 
41 148 
41 149 
41 151 
41 153 
41 155 
41 157 
41 160 
42 81 
42 83 
42 86 
42 87 
42 89 
42 91 
42 94 
42 95 
42 97 
42 99 
42 101 
42 104 
42 106 
42 108 
42 109 
42 112 
42 114 
42 115 
42 118 
42 119 
42 122 
42 123 
42 126 
42 128 
42 129 
42 132 
42 134 
42 135 
42 138 
42 139 
42 141 
42 144 
42 145 
42 147 
42 150 
42 152 
42 154 
42 156 
42 158 
42 159 
43 44 
43 82 
43 84 
43 85 
43 87 
43 90 
43 92 
43 94 
43 96 
43 98 
43 99 
43 101 
43 104 
43 106 
43 108 
43 110 
43 112 
43 113 
43 115 
43 118 
43 120 
43 121 
43 123 
43 126 
43 128 
43 130 
43 132 
43 133 
43 136 
43 138 
43 140 
43 142 
43 144 
43 146 
43 148 
43 150 
43 151 
43 154 
43 156 
43 158 
43 160 
44 81 
44 83 
44 86 
44 88 
44 89 
44 91 
44 93 
44 95 
44 97 
44 100 
44 102 
44 103 
44 105 
44 107 
44 109 
44 111 
44 114 
44 116 
44 117 
44 119 
44 122 
44 124 
44 125 
44 127 
44 129 
44 131 
44 134 
44 135 
44 137 
44 139 
44 141 
44 143 
44 145 
44 147 
44 149 
44 152 
44 153 
44 155 
44 157 
44 159 
45 46 
45 81 
45 83 
45 85 
45 87 
45 90 
45 92 
45 93 
45 95 
45 97 
45 99 
45 102 
45 104 
45 105 
45 108 
45 110 
45 112 
45 113 
45 116 
45 118 
45 120 
45 122 
45 124 
45 125 
45 127 
45 130 
45 131 
45 134 
45 136 
45 137 
45 139 
45 141 
45 143 
45 146 
45 147 
45 150 
45 151 
45 154 
45 156 
45 158 
45 159 
46 82 
46 84 
46 86 
46 88 
46 89 
46 91 
46 94 
46 96 
46 98 
46 100 
46 101 
46 103 
46 106 
46 107 
46 109 
46 111 
46 114 
46 115 
46 117 
46 119 
46 121 
46 123 
46 126 
46 128 
46 129 
46 132 
46 133 
46 135 
46 138 
46 140 
46 142 
46 144 
46 145 
46 148 
46 149 
46 152 
46 153 
46 155 
46 157 
46 160 
47 48 
47 81 
47 84 
47 86 
47 87 
47 89 
47 92 
47 93 
47 95 
47 97 
47 100 
47 101 
47 104 
47 105 
47 108 
47 109 
47 112 
47 113 
47 116 
47 117 
47 119 
47 121 
47 124 
47 126 
47 128 
47 129 
47 131 
47 133 
47 136 
47 138 
47 140 
47 142 
47 143 
47 146 
47 148 
47 150 
47 152 
47 153 
47 155 
47 158 
47 159 
48 82 
48 83 
48 85 
48 88 
48 90 
48 91 
48 94 
48 96 
48 98 
48 99 
48 102 
48 103 
48 106 
48 107 
48 110 
48 111 
48 114 
48 115 
48 118 
48 120 
48 122 
48 123 
48 125 
48 127 
48 130 
48 132 
48 134 
48 135 
48 137 
48 139 
48 141 
48 144 
48 145 
48 147 
48 149 
48 151 
48 154 
48 156 
48 157 
48 160 
49 50 
49 82 
49 84 
49 85 
49 88 
49 89 
49 92 
49 94 
49 95 
49 97 
49 99 
49 101 
49 103 
49 106 
49 107 
49 110 
49 112 
49 114 
49 116 
49 117 
49 120 
49 121 
49 124 
49 126 
49 127 
49 130 
49 131 
49 133 
49 135 
49 138 
49 139 
49 141 
49 144 
49 146 
49 147 
49 149 
49 152 
49 153 
49 156 
49 158 
49 159 
50 81 
50 83 
50 86 
50 87 
50 90 
50 91 
50 93 
50 96 
50 98 
50 100 
50 102 
50 104 
50 105 
50 108 
50 109 
50 111 
50 113 
50 115 
50 118 
50 119 
50 122 
50 123 
50 125 
50 128 
50 129 
50 132 
50 134 
50 136 
50 137 
50 140 
50 142 
50 143 
50 145 
50 148 
50 150 
50 151 
50 154 
50 155 
50 157 
50 160 
51 52 
51 82 
51 83 
51 85 
51 88 
51 89 
51 92 
51 93 
51 96 
51 97 
51 100 
51 101 
51 103 
51 106 
51 108 
51 109 
51 112 
51 113 
51 115 
51 118 
51 120 
51 122 
51 124 
51 125 
51 128 
51 129 
51 131 
51 134 
51 135 
51 138 
51 139 
51 142 
51 144 
51 146 
51 147 
51 150 
51 151 
51 153 
51 155 
51 157 
51 160 
52 81 
52 84 
52 86 
52 87 
52 90 
52 91 
52 94 
52 95 
52 98 
52 99 
52 102 
52 104 
52 105 
52 107 
52 110 
52 111 
52 114 
52 116 
52 117 
52 119 
52 121 
52 123 
52 126 
52 127 
52 130 
52 132 
52 133 
52 136 
52 137 
52 140 
52 141 
52 143 
52 145 
52 148 
52 149 
52 152 
52 154 
52 156 
52 158 
52 159 
53 54 
53 82 
53 83 
53 86 
53 87 
53 90 
53 92 
53 94 
53 95 
53 98 
53 99 
53 101 
53 104 
53 106 
53 107 
53 109 
53 111 
53 113 
53 116 
53 118 
53 119 
53 122 
53 124 
53 126 
53 127 
53 130 
53 132 
53 134 
53 135 
53 138 
53 140 
53 142 
53 143 
53 146 
53 147 
53 149 
53 151 
53 153 
53 155 
53 157 
53 159 
54 81 
54 84 
54 85 
54 88 
54 89 
54 91 
54 93 
54 96 
54 97 
54 100 
54 102 
54 103 
54 105 
54 108 
54 110 
54 112 
54 114 
54 115 
54 117 
54 120 
54 121 
54 123 
54 125 
54 128 
54 129 
54 131 
54 133 
54 136 
54 137 
54 139 
54 141 
54 144 
54 145 
54 148 
54 150 
54 152 
54 154 
54 156 
54 158 
54 160 
55 56 
55 82 
55 84 
55 85 
55 88 
55 89 
55 91 
55 93 
55 95 
55 98 
55 99 
55 102 
55 104 
55 106 
55 107 
55 110 
55 111 
55 113 
55 116 
55 118 
55 120 
55 121 
55 123 
55 125 
55 128 
55 129 
55 132 
55 134 
55 136 
55 138 
55 139 
55 142 
55 143 
55 145 
55 147 
55 150 
55 152 
55 153 
55 155 
55 158 
55 159 
56 81 
56 83 
56 86 
56 87 
56 90 
56 92 
56 94 
56 96 
56 97 
56 100 
56 101 
56 103 
56 105 
56 108 
56 109 
56 112 
56 114 
56 115 
56 117 
56 119 
56 122 
56 124 
56 126 
56 127 
56 130 
56 131 
56 133 
56 135 
56 137 
56 140 
56 141 
56 144 
56 146 
56 148 
56 149 
56 151 
56 154 
56 156 
56 157 
56 160 
57 58 
57 81 
57 83 
57 85 
57 88 
57 90 
57 92 
57 94 
57 95 
57 98 
57 99 
57 102 
57 103 
57 106 
57 108 
57 109 
57 112 
57 114 
57 115 
57 117 
57 120 
57 122 
57 124 
57 125 
57 128 
57 129 
57 132 
57 133 
57 136 
57 138 
57 140 
57 141 
57 143 
57 145 
57 148 
57 149 
57 151 
57 153 
57 155 
57 158 
57 159 
58 82 
58 84 
58 86 
58 87 
58 89 
58 91 
58 93 
58 96 
58 97 
58 100 
58 101 
58 104 
58 105 
58 107 
58 110 
58 111 
58 113 
58 116 
58 118 
58 119 
58 121 
58 123 
58 126 
58 127 
58 130 
58 131 
58 134 
58 135 
58 137 
58 139 
58 142 
58 144 
58 146 
58 147 
58 150 
58 152 
58 154 
58 156 
58 157 
58 160 
59 60 
59 82 
59 84 
59 85 
59 88 
59 89 
59 92 
59 93 
59 96 
59 97 
59 99 
59 102 
59 104 
59 105 
59 108 
59 109 
59 111 
59 114 
59 115 
59 117 
59 119 
59 122 
59 123 
59 126 
59 128 
59 130 
59 132 
59 134 
59 135 
59 137 
59 139 
59 142 
59 143 
59 146 
59 148 
59 149 
59 151 
59 153 
59 156 
59 158 
59 159 
60 81 
60 83 
60 86 
60 87 
60 90 
60 91 
60 94 
60 95 
60 98 
60 100 
60 101 
60 103 
60 106 
60 107 
60 110 
60 112 
60 113 
60 116 
60 118 
60 120 
60 121 
60 124 
60 125 
60 127 
60 129 
60 131 
60 133 
60 136 
60 138 
60 140 
60 141 
60 144 
60 145 
60 147 
60 150 
60 152 
60 154 
60 155 
60 157 
60 160 
61 62 
61 81 
61 83 
61 85 
61 87 
61 89 
61 91 
61 94 
61 96 
61 97 
61 100 
61 101 
61 104 
61 106 
61 107 
61 109 
61 111 
61 114 
61 116 
61 117 
61 120 
61 121 
61 124 
61 125 
61 127 
61 129 
61 132 
61 134 
61 136 
61 138 
61 139 
61 142 
61 143 
61 146 
61 148 
61 149 
61 151 
61 154 
61 156 
61 158 
61 160 
62 82 
62 84 
62 86 
62 88 
62 90 
62 92 
62 93 
62 95 
62 98 
62 99 
62 102 
62 103 
62 105 
62 108 
62 110 
62 112 
62 113 
62 115 
62 118 
62 119 
62 122 
62 123 
62 126 
62 128 
62 130 
62 131 
62 133 
62 135 
62 137 
62 140 
62 141 
62 144 
62 145 
62 147 
62 150 
62 152 
62 153 
62 155 
62 157 
62 159 
63 64 
63 82 
63 84 
63 86 
63 88 
63 89 
63 92 
63 93 
63 95 
63 98 
63 100 
63 101 
63 104 
63 106 
63 108 
63 109 
63 112 
63 113 
63 116 
63 117 
63 120 
63 122 
63 123 
63 126 
63 127 
63 129 
63 132 
63 133 
63 136 
63 137 
63 139 
63 141 
63 143 
63 145 
63 147 
63 149 
63 151 
63 154 
63 156 
63 157 
63 160 
64 81 
64 83 
64 85 
64 87 
64 90 
64 91 
64 94 
64 96 
64 97 
64 99 
64 102 
64 103 
64 105 
64 107 
64 110 
64 111 
64 114 
64 115 
64 118 
64 119 
64 121 
64 124 
64 125 
64 128 
64 130 
64 131 
64 134 
64 135 
64 138 
64 140 
64 142 
64 144 
64 146 
64 148 
64 150 
64 152 
64 153 
64 155 
64 158 
64 159 
65 66 
65 82 
65 84 
65 86 
65 88 
65 89 
65 92 
65 94 
65 95 
65 97 
65 99 
65 101 
65 103 
65 106 
65 108 
65 110 
65 111 
65 114 
65 115 
65 118 
65 119 
65 121 
65 124 
65 125 
65 127 
65 129 
65 131 
65 134 
65 136 
65 137 
65 140 
65 142 
65 143 
65 145 
65 148 
65 150 
65 151 
65 154 
65 156 
65 157 
65 159 
66 81 
66 83 
66 85 
66 87 
66 90 
66 91 
66 93 
66 96 
66 98 
66 100 
66 102 
66 104 
66 105 
66 107 
66 109 
66 112 
66 113 
66 116 
66 117 
66 120 
66 122 
66 123 
66 126 
66 128 
66 130 
66 132 
66 133 
66 135 
66 138 
66 139 
66 141 
66 144 
66 146 
66 147 
66 149 
66 152 
66 153 
66 155 
66 158 
66 160 
67 68 
67 82 
67 84 
67 85 
67 87 
67 89 
67 92 
67 94 
67 95 
67 98 
67 100 
67 101 
67 103 
67 105 
67 107 
67 109 
67 111 
67 114 
67 115 
67 118 
67 119 
67 122 
67 124 
67 125 
67 128 
67 130 
67 132 
67 133 
67 136 
67 137 
67 139 
67 141 
67 143 
67 146 
67 147 
67 150 
67 152 
67 154 
67 155 
67 158 
67 160 
68 81 
68 83 
68 86 
68 88 
68 90 
68 91 
68 93 
68 96 
68 97 
68 99 
68 102 
68 104 
68 106 
68 108 
68 110 
68 112 
68 113 
68 116 
68 117 
68 120 
68 121 
68 123 
68 126 
68 127 
68 129 
68 131 
68 134 
68 135 
68 138 
68 140 
68 142 
68 144 
68 145 
68 148 
68 149 
68 151 
68 153 
68 156 
68 157 
68 159 
69 70 
69 82 
69 83 
69 86 
69 88 
69 90 
69 92 
69 93 
69 96 
69 97 
69 100 
69 101 
69 104 
69 105 
69 108 
69 110 
69 111 
69 114 
69 115 
69 118 
69 120 
69 121 
69 123 
69 125 
69 127 
69 129 
69 132 
69 133 
69 135 
69 138 
69 140 
69 141 
69 143 
69 146 
69 147 
69 149 
69 152 
69 154 
69 155 
69 158 
69 159 
70 81 
70 84 
70 85 
70 87 
70 89 
70 91 
70 94 
70 95 
70 98 
70 99 
70 102 
70 103 
70 106 
70 107 
70 109 
70 112 
70 113 
70 116 
70 117 
70 119 
70 122 
70 124 
70 126 
70 128 
70 130 
70 131 
70 134 
70 136 
70 137 
70 139 
70 142 
70 144 
70 145 
70 148 
70 150 
70 151 
70 153 
70 156 
70 157 
70 160 
71 72 
71 82 
71 84 
71 85 
71 87 
71 90 
71 91 
71 94 
71 95 
71 97 
71 100 
71 102 
71 104 
71 106 
71 108 
71 110 
71 111 
71 114 
71 116 
71 117 
71 119 
71 122 
71 123 
71 125 
71 128 
71 129 
71 131 
71 133 
71 135 
71 138 
71 140 
71 141 
71 143 
71 146 
71 147 
71 150 
71 151 
71 153 
71 156 
71 157 
71 160 
72 81 
72 83 
72 86 
72 88 
72 89 
72 92 
72 93 
72 96 
72 98 
72 99 
72 101 
72 103 
72 105 
72 107 
72 109 
72 112 
72 113 
72 115 
72 118 
72 120 
72 121 
72 124 
72 126 
72 127 
72 130 
72 132 
72 134 
72 136 
72 137 
72 139 
72 142 
72 144 
72 145 
72 148 
72 149 
72 152 
72 154 
72 155 
72 158 
72 159 
73 74 
73 82 
73 84 
73 85 
73 88 
73 90 
73 91 
73 94 
73 96 
73 98 
73 100 
73 101 
73 104 
73 105 
73 107 
73 110 
73 112 
73 113 
73 115 
73 117 
73 119 
73 122 
73 124 
73 126 
73 127 
73 129 
73 131 
73 134 
73 135 
73 138 
73 139 
73 141 
73 143 
73 145 
73 148 
73 150 
73 151 
73 154 
73 155 
73 158 
73 159 
74 81 
74 83 
74 86 
74 87 
74 89 
74 92 
74 93 
74 95 
74 97 
74 99 
74 102 
74 103 
74 106 
74 108 
74 109 
74 111 
74 114 
74 116 
74 118 
74 120 
74 121 
74 123 
74 125 
74 128 
74 130 
74 132 
74 133 
74 136 
74 137 
74 140 
74 142 
74 144 
74 146 
74 147 
74 149 
74 152 
74 153 
74 156 
74 157 
74 160 
75 76 
75 82 
75 83 
75 86 
75 87 
75 90 
75 92 
75 93 
75 96 
75 97 
75 99 
75 102 
75 103 
75 106 
75 107 
75 110 
75 111 
75 113 
75 115 
75 117 
75 119 
75 122 
75 124 
75 126 
75 128 
75 129 
75 131 
75 133 
75 136 
75 138 
75 139 
75 142 
75 143 
75 145 
75 147 
75 149 
75 152 
75 154 
75 156 
75 158 
75 160 
76 81 
76 84 
76 85 
76 88 
76 89 
76 91 
76 94 
76 95 
76 98 
76 100 
76 101 
76 104 
76 105 
76 108 
76 109 
76 112 
76 114 
76 116 
76 118 
76 120 
76 121 
76 123 
76 125 
76 127 
76 130 
76 132 
76 134 
76 135 
76 137 
76 140 
76 141 
76 144 
76 146 
76 148 
76 150 
76 151 
76 153 
76 155 
76 157 
76 159 
77 78 
77 81 
77 84 
77 85 
77 88 
77 90 
77 91 
77 93 
77 95 
77 97 
77 100 
77 101 
77 103 
77 106 
77 107 
77 109 
77 111 
77 113 
77 115 
77 118 
77 120 
77 122 
77 123 
77 126 
77 128 
77 130 
77 131 
77 134 
77 136 
77 138 
77 140 
77 141 
77 143 
77 146 
77 148 
77 149 
77 152 
77 154 
77 156 
77 157 
77 159 
78 82 
78 83 
78 86 
78 87 
78 89 
78 92 
78 94 
78 96 
78 98 
78 99 
78 102 
78 104 
78 105 
78 108 
78 110 
78 112 
78 114 
78 116 
78 117 
78 119 
78 121 
78 124 
78 125 
78 127 
78 129 
78 132 
78 133 
78 135 
78 137 
78 139 
78 142 
78 144 
78 145 
78 147 
78 150 
78 151 
78 153 
78 155 
78 158 
78 160 
79 80 
79 81 
79 84 
79 86 
79 88 
79 90 
79 92 
79 94 
79 95 
79 97 
79 100 
79 102 
79 104 
79 105 
79 107 
79 109 
79 111 
79 113 
79 115 
79 117 
79 120 
79 121 
79 124 
79 125 
79 128 
79 130 
79 132 
79 133 
79 135 
79 138 
79 139 
79 142 
79 144 
79 145 
79 147 
79 150 
79 151 
79 154 
79 156 
79 157 
79 159 
80 82 
80 83 
80 85 
80 87 
80 89 
80 91 
80 93 
80 96 
80 98 
80 99 
80 101 
80 103 
80 106 
80 108 
80 110 
80 112 
80 114 
80 116 
80 118 
80 119 
80 122 
80 123 
80 126 
80 127 
80 129 
80 131 
80 134 
80 136 
80 137 
80 140 
80 141 
80 143 
80 146 
80 148 
80 149 
80 152 
80 153 
80 155 
80 158 
80 160 
81 82 
83 84 
85 86 
87 88 
89 90 
91 92 
93 94 
95 96 
97 98 
99 100 
101 102 
103 104 
105 106 
107 108 
109 110 
111 112 
113 114 
115 116 
117 118 
119 120 
121 122 
123 124 
125 126 
127 128 
129 130 
131 132 
133 134 
135 136 
137 138 
139 140 
141 142 
143 144 
145 146 
147 148 
149 150 
151 152 
153 154 
155 156 
157 158 
159 160 
